Optimal - objective value 5.90597679
      0 C0000000           49800                      -0
      1 C0000001           49800                      -0
      2 C0000002               1                      -0
      3 C0000003               2                      -0
      4 C0000004               3                      -0
      5 C0000005               1                      -0
      6 C0000006               1                      -0
      7 C0000007               1                      -0
      8 C0000008               0                      -0
      9 C0000009               0                      -0
     10 C0000010               2                      -0
     11 C0000011               0                      -0
     12 C0000012               0                      -0
     13 C0000013               2                      -0
     14 C0000014               1                      -0
     15 C0000015               0                      -0
     16 C0000016               0                      -0
     17 C0000017               1                      -0
     18 C0000018               0                      -0
     19 C0000019               1                      -0
     20 C0000020               0                      -0
     21 C0000021               0                      -0
     22 C0000022               0                      -0
     23 C0000023               1                      -0
     24 C0000024               0                      -0
     25 C0000025               0                      -0
     26 C0000026               1                      -0
     27 C0000027               0                      -0
     28 C0000028               0                      -0
     29 C0000029               0                      -0
     30 C0000030               0                      -0
     31 C0000031               0                      -0
     32 C0000032               0                      -0
     33 C0000033               0                      -0
     34 C0000034               0                      -0
     35 C0000035               0                      -0
     36 C0000036               0                      -0
     37 C0000037               0                      -0
     38 C0000038               0                      -0
     39 C0000039               1                      -0
     40 C0000040               0                      -0
     41 C0000041               1                      -0
     42 C0000042               0                      -0
     43 C0000043               0                      -0
     44 C0000044               0                      -0
     45 C0000045               0                      -0
     46 C0000046               0                      -0
     47 C0000047               0                      -0
     48 C0000048               0                      -0
     49 C0000049               0                      -0
     50 C0000050               0                      -0
     51 C0000051               0                      -0
     52 C0000052               0                      -0
     53 C0000053               0                      -0
     54 C0000054               0                      -0
     55 C0000055               0                      -0
     56 C0000056               0                      -0
     57 C0000057               0                      -0
     58 C0000058               0                      -0
     59 C0000059               0                      -0
     60 C0000060               0                      -0
     61 C0000061               0                      -0
     62 C0000062               0                      -0
     63 C0000063               0                      -0
     64 C0000064               0                      -0
     65 C0000065               0                      -0
     66 C0000066               0                      -0
     67 C0000067               0                      -0
     68 C0000068               0                      -0
     69 C0000069               0                      -0
     70 C0000070               0                      -0
     71 C0000071               0                      -0
     72 C0000072               0                      -0
     73 C0000073               0                      -0
     74 C0000074               1                      -0
     75 C0000075               0                      -0
     76 C0000076               0                      -0
     77 C0000077               0                      -0
     78 C0000078               1                      -0
     79 C0000079               0                      -0
     80 C0000080               0                      -0
     81 C0000081               0                      -0
     82 C0000082               0                      -0
     83 C0000083               0                      -0
     84 C0000084               0                      -0
     85 C0000085               0                      -0
     86 C0000086               1                      -0
     87 C0000087               0                      -0
     88 C0000088               0                      -0
     89 C0000089               0                      -0
     90 C0000090               0                      -0
     91 C0000091               0                      -0
     92 C0000092               0                      -0
     93 C0000093               0                      -0
     94 C0000094               1                      -0
     95 C0000095               0                      -0
     96 C0000096               0                      -0
     97 C0000097               0                      -0
     98 C0000098               0                      -0
     99 C0000099               0                      -0
    100 C0000100               0                      -0
    101 C0000101               0                      -0
    102 C0000102               0                      -0
    103 C0000103               0                      -0
    104 C0000104               0                      -0
    105 C0000105               0                      -0
    106 C0000106               0                      -0
    107 C0000107               0                      -0
    108 C0000108               0                      -0
    109 C0000109               0                      -0
    110 C0000110               0                      -0
    111 C0000111               0                      -0
    112 C0000112               0                      -0
    113 C0000113               0                      -0
    114 C0000114               0                      -0
    115 C0000115               0                      -0
    116 C0000116               0                      -0
    117 C0000117               0                      -0
    118 C0000118               0                      -0
    119 C0000119               0                      -0
    120 C0000120               0                      -0
    121 C0000121               0                      -0
    122 C0000122               0                      -0
    123 C0000123               0                      -0
    124 C0000124               0                      -0
    125 C0000125               0                      -0
    126 C0000126               0                      -0
    127 C0000127               0                      -0
    128 C0000128               0                      -0
    129 C0000129               0                      -0
    130 C0000130               0                      -0
    131 C0000131               0                      -0
    132 C0000132               0                      -0
    133 C0000133               0                      -0
    134 C0000134               0                      -0
    135 C0000135               0                      -0
    136 C0000136               0                      -0
    137 C0000137               0                      -0
    138 C0000138               0                      -0
    139 C0000139               0                      -0
    140 C0000140               0                      -0
    141 C0000141               1                      -0
    142 C0000142               1                      -0
    143 C0000143               0                      -0
    144 C0000144               0                      -0
    145 C0000145               0                      -0
    146 C0000146               0                      -0
    147 C0000147               0                      -0
    148 C0000148               0                      -0
    149 C0000149               0                      -0
    150 C0000150               0                      -0
    151 C0000151               0                      -0
    152 C0000152               0                      -0
    153 C0000153               0                      -0
    154 C0000154               0                      -0
    155 C0000155               0                      -0
    156 C0000156               0                      -0
    157 C0000157               0                      -0
    158 C0000158               0                      -0
    159 C0000159               0                      -0
    160 C0000160               0                      -0
    161 C0000161               0                      -0
    162 C0000162               0                      -0
    163 C0000163               0                      -0
    164 C0000164               0                      -0
    165 C0000165               0                      -0
    166 C0000166               0                      -0
    167 C0000167               0                      -0
    168 C0000168               0                      -0
    169 C0000169               0                      -0
    170 C0000170               1                      -0
    171 C0000171               0                      -0
    172 C0000172               0                      -0
    173 C0000173               0                      -0
    174 C0000174               0                      -0
    175 C0000175               0                      -0
    176 C0000176               0                      -0
    177 C0000177               0                      -0
    178 C0000178               0                      -0
    179 C0000179               0                      -0
    180 C0000180               0                      -0
    181 C0000181               0                      -0
    182 C0000182               0                      -0
    183 C0000183               0                      -0
    184 C0000184               0                      -0
    185 C0000185               0                      -0
    186 C0000186               0                      -0
    187 C0000187               0                      -0
    188 C0000188               0                      -0
    189 C0000189               0                      -0
    190 C0000190               0                      -0
    191 C0000191               0                      -0
    192 C0000192               0                      -0
    193 C0000193               0                      -0
    194 C0000194               0                      -0
    195 C0000195          110.09                      -0
    196 C0000196          139.61                      -0
    197 C0000197               6                      -0
    198 C0000198               6                      -0
    199 C0000199               6                      -0
    200 C0000200               7                      -0
    201 C0000201               5                      -0
    202 C0000202               7                      -0
    203 C0000203               6                      -0
    204 C0000204               6                      -0
    205 C0000205               6                      -0
    206 C0000206               5                      -0
    207 C0000207               7                      -0
    208 C0000208               4                      -0
    209 C0000209               4                      -0
    210 C0000210               7                      -0
    211 C0000211               7                      -0
    212 C0000212               6                      -0
    213 C0000213               5                      -0
    214 C0000214               5                      -0
    215 C0000215               5                      -0
    216 C0000216               8                      -0
    217 C0000217               5                      -0
    218 C0000218               6                      -0
    219 C0000219               6                      -0
    220 C0000220               5                      -0
    221 C0000221               6                      -0
    222 C0000222               7                      -0
    223 C0000223               4                      -0
    224 C0000224               4                      -0
    225 C0000225               5                      -0
    226 C0000226               5                      -0
    227 C0000227               5                      -0
    228 C0000228               7                      -0
    229 C0000229               5                      -0
    230 C0000230               5                      -0
    231 C0000231               5                      -0
    232 C0000232               6                      -0
    233 C0000233               5                      -0
    234 C0000234               5                      -0
    235 C0000235               4                      -0
    236 C0000236               5                      -0
    237 C0000237               6                      -0
    238 C0000238               4                      -0
    239 C0000239               5                      -0
    240 C0000240               5                      -0
    241 C0000241               5                      -0
    242 C0000242               4                      -0
    243 C0000243               6                      -0
    244 C0000244               7                      -0
    245 C0000245               4                      -0
    246 C0000246               5                      -0
    247 C0000247               5                      -0
    248 C0000248               6                      -0
    249 C0000249               5                      -0
    250 C0000250               6                      -0
    251 C0000251               6                      -0
    252 C0000252               6                      -0
    253 C0000253               6                      -0
    254 C0000254               5                      -0
    255 C0000255               6                      -0
    256 C0000256               6                      -0
    257 C0000257               4                      -0
    258 C0000258               6                      -0
    259 C0000259               6                      -0
    260 C0000260               6                      -0
    261 C0000261               6                      -0
    262 C0000262               5                      -0
    263 C0000263               6                      -0
    264 C0000264               6                      -0
    265 C0000265               7                      -0
    266 C0000266               5                      -0
    267 C0000267               5                      -0
    268 C0000268               6                      -0
    269 C0000269               4                      -0
    270 C0000270               6                      -0
    271 C0000271               6                      -0
    272 C0000272               5                      -0
    273 C0000273               4                      -0
    274 C0000274               7                      -0
    275 C0000275               5                      -0
    276 C0000276               4                      -0
    277 C0000277               7                      -0
    278 C0000278               6                      -0
    279 C0000279               6                      -0
    280 C0000280               6                      -0
    281 C0000281               5                      -0
    282 C0000282               4                      -0
    283 C0000283               6                      -0
    284 C0000284               4                      -0
    285 C0000285               5                      -0
    286 C0000286               5                      -0
    287 C0000287               5                      -0
    288 C0000288               6                      -0
    289 C0000289               6                      -0
    290 C0000290               6                      -0
    291 C0000291               6                      -0
    292 C0000292               5                      -0
    293 C0000293               6                      -0
    294 C0000294               6                      -0
    295 C0000295               4                      -0
    296 C0000296               6                      -0
    297 C0000297               5                      -0
    298 C0000298               5                      -0
    299 C0000299               5                      -0
    300 C0000300               4                      -0
    301 C0000301               6                      -0
    302 C0000302               4                      -0
    303 C0000303               6                      -0
    304 C0000304               4                      -0
      0 X0000000               0             -0.21015122
      1 X0000001               0              0.64736521
      2 X0000002               0              0.64736521
      3 X0000003               0              0.52202094
      4 X0000004               0              0.52202094
      5 X0000005               1              0.98622039
      6 X0000006               0              0.52778784
      7 X0000007               0              0.52778784
      8 X0000008               0              0.28155984
      9 X0000009               0              0.28155984
     10 X0000010               0                       1
     11 X0000011               0              0.43949763
     12 X0000012               0              0.43949763
     13 X0000013               0              0.47164203
     14 X0000014               0              0.47164203
     15 X0000015               0              0.44277555
     16 X0000016               0              0.44277555
     17 X0000017               0              0.33033416
     18 X0000018               0              0.33033416
     19 X0000019               0              0.63218213
     20 X0000020               0              0.63218213
     21 X0000021               0              0.33170864
     22 X0000022               0              0.33170864
     23 X0000023               0              0.65187929
     24 X0000024               0              0.18653555
     25 X0000025               0              0.18653555
     26 X0000026               0            -0.061703172
     27 X0000027               0            -0.061703172
     28 X0000028               0             0.097306609
     29 X0000029               0             0.010829835
     30 X0000030               0             0.010829835
     31 X0000031               1              0.26778342
     32 X0000032               0              0.67938427
     33 X0000033               0              0.67938427
     34 X0000034               0              0.26459438
     35 X0000035               0              0.16944133
     36 X0000036               0              0.16944133
     37 X0000037               0              0.46916477
     38 X0000038               0              0.46916477
     39 X0000039               0              0.42342309
     40 X0000040               0              0.42342309
     41 X0000041               0              0.50347132
     42 X0000042               0              0.50347132
     43 X0000043               0              0.57884034
     44 X0000044               0              0.57884034
     45 X0000045               0               0.6225474
     46 X0000046               0               0.6225474
     47 X0000047               0              0.84720286
     48 X0000048               0             -0.16556995
     49 X0000049               0              0.85962287
     50 X0000050               0              0.65983323
     51 X0000051               0              0.47606037
     52 X0000052               0              0.47606037
     53 X0000053               0              0.17871637
     54 X0000054               0              0.17871637
     55 X0000055               0              0.17940147
     56 X0000056               0               0.7342142
     57 X0000057               1               0.7342142
     58 X0000058               0             0.087330818
     59 X0000059               0             0.087330818
     60 X0000060               0              0.64811964
     61 X0000061               0              0.64811964
     62 X0000062               0              0.28401708
     63 X0000063               0              0.28401708
     64 X0000064               0              0.22349844
     65 X0000065               0             -0.11316769
     66 X0000066               0              0.47717615
     67 X0000067               0              0.47717615
     68 X0000068               0             0.095993933
     69 X0000069               0             0.095993933
     70 X0000070               0               0.4120972
     71 X0000071               0               0.4120972
     72 X0000072               0              0.47363636
     73 X0000073               0              0.47363636
     74 X0000074               0              0.67869079
     75 X0000075               1              0.67869079
     76 X0000076               0              0.44136753
     77 X0000077               0              0.44136753
     78 X0000078               0             0.088661319
     79 X0000079               0             0.088661319
     80 X0000080               0              0.23613221
     81 X0000081               0              0.23613221
     82 X0000082               0               0.3556009
     83 X0000083               0               0.3556009
     84 X0000084               0              0.66004569
     85 X0000085               0              0.66004569
     86 X0000086               0              0.33994226
     87 X0000087               0              0.33994226
     88 X0000088               0              0.61898727
     89 X0000089               0              0.61898727
     90 X0000090               0              0.50146333
     91 X0000091               0              0.50146333
     92 X0000092               0              0.52593312
     93 X0000093               0              0.52593312
     94 X0000094               0              0.32785684
     95 X0000095               0              0.32785684
     96 X0000096               0              0.27550159
     97 X0000097               0              0.27550159
     98 X0000098               0              0.22242156
     99 X0000099               0              0.22242156
    100 X0000100               0              0.22697816
    101 X0000101               0              0.22697816
    102 X0000102               0              0.15386472
    103 X0000103               0              0.88309271
    104 X0000104               0              0.51445883
    105 X0000105               0              0.51445883
    106 X0000106               0               0.7359112
    107 X0000107               0              0.80885672
    108 X0000108               0              0.23695701
    109 X0000109               0              0.23695701
    110 X0000110               0              0.22534296
    111 X0000111               0              0.52312262
    112 X0000112               0              0.52312262
    113 X0000113               0              0.25398951
    114 X0000114               0              0.51481373
    115 X0000115               0              0.51481373
    116 X0000116               0              0.96276085
    117 X0000117               0              0.70344781
    118 X0000118               1              0.70344781
    119 X0000119               0             -0.13387541
    120 X0000120               0              0.27550491
    121 X0000121               0              0.27550491
    122 X0000122               0              0.49307406
    123 X0000123               0              0.49307406
    124 X0000124               0              0.24623321
    125 X0000125               0              0.24623321
    126 X0000126               0              0.71319789
    127 X0000127               0              0.71319789
    128 X0000128               0             0.035136743
    129 X0000129               0             0.035136743
    130 X0000130               0              0.17703905
    131 X0000131               0              0.81118172
    132 X0000132               1              0.81118172
    133 X0000133               0              0.59356707
    134 X0000134               0              0.59356707
    135 X0000135               0              0.57231603
    136 X0000136               1              0.57231603
    137 X0000137               0              0.62462691
    138 X0000138               0              0.66411062
    139 X0000139               0              0.66411062
    140 X0000140               0              0.52384926
    141 X0000141               0              0.52384926
    142 X0000142               0              0.58165943
    143 X0000143               0              0.58165943
    144 X0000144               0              0.97601036
    145 X0000145               1              0.64156633
    146 X0000146               0              0.64156633
    147 X0000147               0              0.53365032
    148 X0000148               0              0.53365032
    149 X0000149               0              0.84560879
    150 X0000150               0              0.30541052
    151 X0000151               0              0.30541052
    152 X0000152               0              0.42893589
    153 X0000153               0              0.42893589
    154 X0000154               0              0.50983426
    155 X0000155               0              0.50983426
    156 X0000156               0             -0.12290429
    157 X0000157               0              0.83171407
    158 X0000158               0              0.53428926
    159 X0000159               0              0.53428926
    160 X0000160               0              0.54756603
    161 X0000161               0              0.54756603
    162 X0000162               0              0.58333998
    163 X0000163               0              0.58333998
    164 X0000164               0              0.17997422
    165 X0000165               0              0.17997422
    166 X0000166               0              0.82841896
    167 X0000167               0              0.50977206
    168 X0000168               0              0.50977206
    169 X0000169               0              0.63089361
    170 X0000170               0              0.63089361
    171 X0000171               0              0.31659124
    172 X0000172               0              0.31659124
    173 X0000173               0              0.52623375
    174 X0000174               0              0.52623375
    175 X0000175               0              0.16962929
    176 X0000176               0              0.16962929
    177 X0000177               0              0.15508185
    178 X0000178               0              0.15508185
    179 X0000179               0              0.51968392
    180 X0000180               0              0.51968392
    181 X0000181               0              0.35362346
    182 X0000182               0              0.35362346
    183 X0000183               0              0.57828936
    184 X0000184               0              0.57828936
    185 X0000185               0              0.34891002
    186 X0000186               0              0.34891002
    187 X0000187               0              0.70191185
    188 X0000188               0              0.58984457
    189 X0000189               0              0.58984457
    190 X0000190               0             -0.23764619
    191 X0000191               0              0.62196861
    192 X0000192               0              0.66496581
    193 X0000193               0              0.66496581
    194 X0000194               0               0.3181439
    195 X0000195               0               0.3181439
    196 X0000196               0              0.54770202
    197 X0000197               0              0.54770202
    198 X0000198               0              0.77361121
    199 X0000199               0              0.75672497
    200 X0000200               0              0.18577403
    201 X0000201               0              0.18577403
    202 X0000202               0              0.73072712
    203 X0000203               0              0.52212749
    204 X0000204               0              0.52212749
    205 X0000205               0              0.32868936
    206 X0000206               0              0.32868936
    207 X0000207               0              0.33231687
    208 X0000208               0              0.33231687
    209 X0000209               0               0.4307667
    210 X0000210               0               0.4307667
    211 X0000211               0             0.080703484
    212 X0000212               0             0.080703484
    213 X0000213               0              0.29001987
    214 X0000214               0              0.29001987
    215 X0000215               0             -0.11801886
    216 X0000216               0              0.35373154
    217 X0000217               0              0.35373154
    218 X0000218               0              0.39864497
    219 X0000219               0              0.39864497
    220 X0000220               0              0.71787114
    221 X0000221               0              0.71787114
    222 X0000222               0              0.20121944
    223 X0000223               0              0.20121944
    224 X0000224               0             -0.13242685
    225 X0000225               0              0.19690005
    226 X0000226               0              0.19396119
    227 X0000227               0              0.19396119
    228 X0000228               0              0.40824458
    229 X0000229               0              0.40824458
    230 X0000230               0              0.43860052
    231 X0000231               0              0.43860052
    232 X0000232               0             -0.16925618
    233 X0000233               0             -0.16925618
    234 X0000234               0              0.41228604
    235 X0000235               0              0.41228604
    236 X0000236               0              0.14438263
    237 X0000237               0              0.14438263
    238 X0000238               0              0.72600667
    239 X0000239               0              0.46200306
    240 X0000240               0              0.46200306
    241 X0000241               0              0.62202669
    242 X0000242               0              0.62202669
    243 X0000243               0             -0.16856984
    244 X0000244               0              0.48915758
    245 X0000245               0              0.48915758
    246 X0000246               0              0.27569879
    247 X0000247               0              0.27569879
    248 X0000248               0              0.66216303
    249 X0000249               0              0.66216303
    250 X0000250               0              0.65771328
    251 X0000251               0              0.65771328
    252 X0000252               0             0.033739255
    253 X0000253               0             0.033739255
    254 X0000254               0             -0.14413315
    255 X0000255               0              0.49060042
    256 X0000256               0              0.49060042
    257 X0000257               0              0.40270283
    258 X0000258               0              0.40270283
    259 X0000259               0              0.43506645
    260 X0000260               0              0.43506645
    261 X0000261               0              0.20026188
    262 X0000262               0              0.20026188
    263 X0000263               0              0.59015231
    264 X0000264               0              0.59015231
    265 X0000265               0              0.64099158
    266 X0000266               0              0.18060551
    267 X0000267               0              0.18060551
    268 X0000268               0              0.31858389
    269 X0000269               0              0.31858389
    270 X0000270               0              0.27027081
    271 X0000271               0              0.27027081
    272 X0000272               0              0.25866647
    273 X0000273               0              0.25866647
    274 X0000274               0              0.22077364
    275 X0000275               0              0.22077364
    276 X0000276               0               0.2387762
    277 X0000277               0               0.2387762
    278 X0000278               0               0.5262838
    279 X0000279               0               0.5262838
    280 X0000280               0              0.45363658
    281 X0000281               0              0.45363658
    282 X0000282               0              0.18971821
    283 X0000283               0              0.51055609
    284 X0000284               1              0.51055609
    285 X0000285               0              0.27166682
    286 X0000286               0              0.27166682
